
Gurobi 11.0.2 (linux64) logging started Tue 03 Dec 2024 09:03:16 AM CET

Set parameter LogFile to value "./res/knapPI_11_50_1000/knapPI_11_50_1000_15/grb_dom.log"
Set parameter Presolve to value 0
Set parameter Aggregate to value 0
Set parameter Heuristics to value 0
Set parameter LPWarmStart to value 0
Set parameter NLPHeur to value 0
Set parameter PreDepRow to value 0
Set parameter PreDual to value 0
Set parameter RINS to value 0
Set parameter Symmetry to value 0
Set parameter NodeLimit to value 1
Set parameter Threads to value 1

Gurobi 11.0.2 (linux64) logging started Tue 03 Dec 2024 09:03:21 AM CET

Set parameter LogFile to value "./res/knapPI_11_50_1000/knapPI_11_50_1000_15/grb_dom.log"
Set parameter NLPHeur to value 0
Set parameter LPWarmStart to value 0
Set parameter PreDepRow to value 0
Set parameter Symmetry to value 0
Set parameter Presolve to value 0
Gurobi Optimizer version 11.0.2 build v11.0.2rc0 (linux64 - "Pop!_OS 20.04 LTS")

CPU model: Intel(R) Core(TM) i7-8650U CPU @ 1.90GHz, instruction set [SSE2|AVX|AVX2]
Thread count: 4 physical cores, 4 logical processors, using up to 1 threads

Optimize a model with 39094 rows, 50 columns and 1389203 nonzeros
Model fingerprint: 0xe8c5a75d
Variable types: 0 continuous, 50 integer (50 binary)
Coefficient statistics:
  Matrix range     [1e+00, 2e+03]
  Objective range  [1e+02, 2e+03]
  Bounds range     [0e+00, 0e+00]
  RHS range        [7e+03, 7e+03]
Variable types: 0 continuous, 50 integer (50 binary)

Root relaxation: objective 7.351888e+03, 12 iterations, 0.30 seconds (0.06 work units)

    Nodes    |    Current Node    |     Objective Bounds      |     Work
 Expl Unexpl |  Obj  Depth IntInf | Incumbent    BestBd   Gap | It/Node Time

     0     0 7351.88832    0    1          - 7351.88832      -     -    0s
     0     0 7351.88832    0    2          - 7351.88832      -     -    1s
     0     0 7351.88832    0    2          - 7351.88832      -     -    2s
     0     0 7351.88832    0    2          - 7351.88832      -     -    3s
     0     0 7351.88832    0    1          - 7351.88832      -     -    3s
     0     0 7351.88832    0    2          - 7351.88832      -     -    4s
     0     0 7351.88832    0    4          - 7351.88832      -     -    4s
     0     0 7351.88832    0    4          - 7351.88832      -     -    5s
     0     2 7351.88832    0    4          - 7351.88832      -     -    5s

Cutting planes:
  Cover: 3
  RLT: 1

Explored 1 nodes (26 simplex iterations) in 5.88 seconds (3.90 work units)
Thread count was 1 (of 4 available processors)

Solution count 0

Node limit reached
Best objective -, best bound 7.351000000000e+03, gap -

User-callback calls 1538, time in user-callback 0.00 sec
opt = false
obj = 7351.8883
nb_dom_cuts = 39093
solved_time = 5.8784
opt_val = 7289.0
